3 15 1
6 6 1 5 1 5 1 5 2 7 2 7 2 7 6 3 10 3 10 3 10 4 14 4 14 4 14 6 3 10 3 10 3 10 4 14 4 14 4 14 6 3 10 3 10 3 10 4 14 4 14 4 14 6 3 10 3 10 3 10 4 14 4 14 4 14 6 3 10 3 10 3 10 4 14 4 14 4 14
14 18 1 24 1 24 1 24 2 24 2 24 2 24 3 25 3 25 3 25 4 25 4 25 4 25 5 25 5 25 5 25 6 25 6 25 6 25 18 7 25 7 25 7 25 8 26 8 26 8 26 9 26 9 26 9 26 10 26 10 26 10 26 11 27 11 27 11 27 12 27 12 27 12 27 15 7 25 7 25 7 25 8 26 8 26 8 26 9 26 9 26 9 26 10 26 10 26 10 26 11 27 11 27 11 27 15 6 25 6 25 6 25 7 25 7 25 7 25 8 26 8 26 8 26 9 26 9 26 9 26 10 26 10 26 10 26 15 6 25 6 25 6 25 7 25 7 25 7 25 8 26 8 26 8 26 9 26 9 26 9 26 10 26 10 26 10 26 15 6 25 6 25 6 25 7 25 7 25 7 25 8 26 8 26 8 26 9 26 9 26 9 26 10 26 10 26 10 26 15 6 25 6 25 6 25 7 25 7 25 7 25 8 26 8 26 8 26 9 26 9 26 9 26 10 26 10 26 10 26 15 6 25 6 25 6 25 7 25 7 25 7 25 8 26 8 26 8 26 9 26 9 26 9 26 10 26 10 26 10 26 15 6 25 6 25 6 25 7 25 7 25 7 25 8 26 8 26 8 26 9 26 9 26 9 26 10 26 10 26 10 26 15 6 25 6 25 6 25 7 25 7 25 7 25 8 26 8 26 8 26 9 26 9 26 9 26 10 26 10 26 10 26 15 6 25 6 25 6 25 7 25 7 25 7 25 8 26 8 26 8 26 9 26 9 26 9 26 10 26 10 26 10 26 15 6 25 6 25 6 25 7 25 7 25 7 25 8 26 8 26 8 26 9 26 9 26 9 26 10 26 10 26 10 26 15 6 25 6 25 6 25 7 25 7 25 7 25 8 26 8 26 8 26 9 26 9 26 9 26 10 26 10 26 10 26 15 6 25 6 25 6 25 7 25 7 25 7 25 8 26 8 26 8 26 9 26 9 26 9 26 10 26 10 26 10 26
10 6 1 8 1 8 1 8 2 8 2 8 2 8 6 3 8 3 8 3 8 4 8 4 8 4 8 6 3 8 3 8 3 8 4 8 4 8 4 8 6 3 8 3 8 3 8 4 8 4 8 4 8 6 3 8 3 8 3 8 4 8 4 8 4 8 6 3 8 3 8 3 8 4 8 4 8 4 8 6 3 8 3 8 3 8 4 8 4 8 4 8 6 3 8 3 8 3 8 4 8 4 8 4 8 6 3 8 3 8 3 8 4 8 4 8 4 8 6 3 8 3 8 3 8 4 8 4 8 4 8
